nursingWorkload/2zones0.param
language ESSENCE' 1.0

letting numZones = 2
letting numNurses = 11
letting minNumPatientsPerNurse = 1
letting maxNumPatientsPerNurse = 3
letting maxWorkloadPerNurse = 105
letting zonePatientAcuity = [[74,45,41,34,33,33,29,27,26,25,24,23,21,21,13,10], 
                            [47, 46, 40, 38, 37, 37, 34, 25, 23, 22, 21, 18, 16,0,0,0]]
letting numZonePatients = [16, 13]
