nursingWorkload/2zones0.param.solution
language ESSENCE' 1.0
$ Minion SolverNodes: 1
$ Minion SolverTotalTime: 0.019145
$ Minion SolverTimeOut: 0
$ Savile Row TotalTime: 0.063
letting nursePatientAssign be [[0, 0, 0], 
[0, 0, 0], 
[0, 0, 0], 
[0, 0, 0], 
[0, 0, 0], 
[0, 0, 0], 
[0, 0, 0], 
[0, 0, 0], 
[0, 0, 0], 
[0, 0, 0], 
[0, 0, 0]]
letting nurseZoneAssign be [1, 1, 1, 1, 1, 1, 1, 1, 1, 1, 1]
